ALGO = Normal
EDIFF = 1e-06
ENCUT = 520.0
ISMEAR = -5
ISPIN = 2
ICHARG = 1
LCHARG = True
LORBIT = 11
NEDOS = 2000
LWAVE = False
PREC = Accurate
SIGMA = 0.05
