Li Co  O
 1.0000000000000000
     8.4337999999999997    0.0000000000000000    0.0000000000000000
    -2.8112499999999985    4.8692278327780070    0.0000000000000000
     0.0000000000000000    0.0000000000000000   23.9095000000000013
 Li  Co  O
  18  18  36
Cartesian
  0.0000000000000000  0.0000000000000000 13.9094564300000005
  0.0000000000000000  0.0000000000000000  0.0000000000000000
  2.8112569800000000 -0.0000000000000000 13.9094564300000005
  5.6225139600000000 -0.0000000000000000  0.0000000000000000
  4.2168854700000002  2.4346199610000001 13.9094564300000005
  1.4056284900000000  2.4346199610000001  0.0000000000000000
 -1.4056285040000001  4.0576999440000003  9.2729710000000001
  7.0281424640000001  0.8115399790000000  4.6364854299999996
 -0.0000000140000000  1.6230799819999999  9.2729710000000001
  5.6225139740000003  3.2461599400000001  4.6364854299999996
  5.6225139459999998  1.6230799819999999  9.2729710000000001
  0.0000000140000000  3.2461599400000001  4.6364854299999996
  4.2168854560000000  4.0576999440000003  9.2729710000000001
  1.4056285040000001  0.8115399790000000  4.6364854299999996
  1.4056284760000000  4.0576999440000003  9.2729710000000001
  4.2168854839999996  0.8115399790000000  4.6364854299999996
  2.8112569660000002  1.6230799819999999  9.2729710000000001
  2.8112569939999998  3.2461599400000001  4.6364854299999996
  0.0000000140000000  3.2461599400000001 11.5912136449999998
  5.6225139459999998  1.6230799819999999  2.3182427849999998
  1.4056285040000001  0.8115399790000000 11.5912136449999998
  4.2168854560000000  4.0576999440000003  2.3182427849999998
  2.8112569939999998  3.2461599400000001 11.5912136449999998
  2.8112569660000002  1.6230799819999999  2.3182427849999998
  4.2168854839999996  0.8115399790000000 11.5912136449999998
  1.4056285040000001  4.0576999440000003  2.3182427849999998
  5.6225139740000003  3.2461599400000001 11.5912136449999998
 -0.0000000140000000  1.6230799819999999  2.3182427849999998
  7.0281424640000001  0.8115399790000000 11.5912136449999998
 -1.4056284760000000  4.0576999440000003  2.3182427849999998
  0.0000000000000000  0.0000000000000000  6.9547282150000003
  4.2168854700000002  2.4346199610000001  6.9547282150000003
 -1.4056284900000000  2.4346199610000001  6.9547282150000003
  5.6225139600000000 -0.0000000000000000  6.9547282150000003
  2.8112569800000000 -0.0000000000000000  6.9547282150000003
  1.4056284900000000  2.4346199610000001  6.9547282150000003
 -1.4056285040000001  4.0576999440000003 12.6113351270000003
  7.0281424640000001  0.8115399790000000  1.2981213030000001
 -0.0000000140000000  1.6230799819999999 12.6113351270000003
  5.6225139740000003  3.2461599400000001  1.2981213030000001
  1.4056284760000000  4.0576999440000003 12.6113351270000003
  4.2168854839999996  0.8115399790000000  1.2981213030000001
  2.8112569660000002  1.6230799819999999 12.6113351270000003
  2.8112569939999998  3.2461599400000001  1.2981213030000001
  5.6225139459999998  1.6230799819999999 12.6113351270000003
  0.0000000140000000  3.2461599400000001  1.2981213030000001
  4.2168854560000000  4.0576999440000003 12.6113351270000003
  1.4056285040000001  0.8115399790000000  1.2981213030000001
 -1.4056284900000000  2.4346199610000001 10.5710923020000003
  5.6225139600000000 -0.0000000000000000  3.3383641279999998
  0.0000000000000000  0.0000000000000000 10.5710923020000003
  4.2168854700000002  2.4346199610000001  3.3383641279999998
  2.8112569800000000 -0.0000000000000000 10.5710923020000003
  1.4056284900000000  2.4346199610000001  3.3383641279999998
  1.4056284900000000  2.4346199610000001 10.5710923020000003
  2.8112569800000000 -0.0000000000000000  3.3383641279999998
  4.2168854700000002  2.4346199610000001 10.5710923020000003
  0.0000000000000000  0.0000000000000000  3.3383641279999998
  5.6225139600000000 -0.0000000000000000 10.5710923020000003
 -1.4056284900000000  2.4346199610000001  3.3383641279999998
  0.0000000140000000  3.2461599400000001  7.9748495579999998
  5.6225139459999998  1.6230799819999999  5.9346068719999998
  1.4056285040000001  0.8115399790000000  7.9748495579999998
  4.2168854560000000  4.0576999440000003  5.9346068719999998
  2.8112569939999998  3.2461599400000001  7.9748495579999998
  2.8112569660000002  1.6230799819999999  5.9346068719999998
  4.2168854839999996  0.8115399790000000  7.9748495579999998
  1.4056284760000000  4.0576999440000003  5.9346068719999998
  5.6225139740000003  3.2461599400000001  7.9748495579999998
 -0.0000000140000000  1.6230799819999999  5.9346068719999998
  7.0281424640000001  0.8115399790000000  7.9748495579999998
 -1.4056285040000001  4.0576999440000003  5.9346068719999998